100 10
60 42
66 34
15 90
42 64
59 51
31 60
23 80
60 44
63 29
82 10
66 31
84 16
51 46
31 70
2 99
82 10
20 87
95 13
58 46
47 60
26 79
45 64
53 52
23 77
38 55
90 19
60 39
53 52
8 86
60 46
43 65
17 90
41 57
77 20
57 48
82 26
76 31
12 94
33 73
88 22
78 32
46 63
76 29
73 28
73 32
74 33
13 87
44 56
2 94
27 72
55 51
86 6
6 85
4 86
63 30
16 88
99 1
63 46
100 5
38 60
17 86
6 94
98 2
65 42
58 36
57 41
7 84
48 58
87 3
21 77
12 97
3 100
99 1
31 68
85 15
48 53
35 58
61 38
48 52
15 77
38 56
23 74
61 42
62 32
74 27
27 82
87 8
47 57
70 24
50 48
92 7
76 32
62 39
12 96
33 65
50 55
38 56
67 41
24 74
73 31
369 454
561 649
644 728
357 415
522 617
405 467
391 471
413 507
623 747
583 680
